c   #vars: 75   #clauses: 331   #literals: 898
c 
p cnf 75 331
-2 -3 0
-4 -5 0
-6 -7 0
1 43 44 -72 0
-8 -9 0
-10 -11 0
-13 -14 0
-15 -16 0
26 27 55 56 0
17 18 35 36 0
-17 -18 0
-19 -20 0
-21 -22 0
19 20 28 -53 0
-24 -25 0
-26 -27 0
6 7 -39 73 0
-29 -30 0
-31 -32 0
-33 -34 0
-35 -36 0
-37 -38 0
43 44 71 72 0
-39 -40 0
-41 -42 0
-43 -44 0
-45 -46 0
41 42 71 72 0
-47 -48 0
-49 -50 0
-51 -52 0
-53 -54 0
10 11 43 44 0
-55 -56 0
-57 -58 0
4 5 53 54 0
-59 -60 0
-61 -62 0
-63 -64 0
19 20 39 40 0
-65 -66 0
-67 -68 0
-69 -70 0
13 14 31 32 0
-71 -72 0
13 14 53 54 0
1 -44 61 62 0
24 25 65 66 0
-74 -75 0
-1 -43 0
6 7 45 46 0
-1 -61 0
1 61 62 -66 0
12 26 27 -74 0
12 -26 74 75 0
-1 -65 0
1 61 62 -72 0
-1 -71 0
1 -44 71 72 0
-2 -33 0
-3 -34 0
1 -62 71 72 0
-2 -37 0
-3 -38 0
6 7 29 30 0
-2 -55 0
-3 -56 0
41 42 53 54 0
-2 -57 0
-3 -58 0
12 71 72 -74 0
-4 -26 0
-5 -27 0
-4 -43 0
-5 -44 0
-4 -45 0
-5 -46 0
-4 -53 0
-5 -54 0
45 46 65 66 0
-4 -63 0
-5 -64 0
-4 -67 0
-5 -68 0
24 25 57 58 0
-4 -74 0
-5 -75 0
-6 -29 0
-7 -30 0
4 5 67 68 0
-6 -37 0
-7 -38 0
-19 28 53 54 0
-6 -39 0
-7 -40 0
-10 28 53 54 0
-6 -45 0
-7 -46 0
29 30 59 60 0
1 65 66 -72 0
-7 -73 0
23 -24 61 62 0
31 32 -71 -72 0
4 5 43 44 0
23 -24 43 44 0
1 43 44 -66 0
23 24 25 -61 0
37 38 67 68 0
1 43 44 -62 0
23 24 25 -43 0
13 14 49 50 0
43 44 59 60 0
23 43 44 -61 0
8 9 33 34 0
-8 -31 0
-9 -32 0
33 34 57 58 0
-8 -33 0
-9 -34 0
2 3 33 34 0
-8 -39 0
-9 -40 0
-8 -59 0
-9 -60 0
-8 -61 0
-9 -62 0
33 34 61 62 0
6 7 -10 73 0
-11 -28 0
12 -71 74 75 0
-10 -43 0
-11 -44 0
4 5 74 75 0
-10 -45 0
-11 -46 0
39 40 65 66 0
1 -62 65 66 0
-11 -73 0
-12 -27 0
47 48 61 62 0
12 26 27 -71 0
4 5 26 27 0
-12 -72 0
4 5 45 46 0
23 -43 61 62 0
-12 -75 0
-13 -31 0
-14 -32 0
10 11 45 46 0
-13 -41 0
-14 -42 0
49 50 51 52 0
-13 -49 0
-14 -50 0
33 34 69 70 0
-13 -51 0
-14 -52 0
-13 -53 0
-14 -54 0
15 16 39 40 0
-13 -55 0
-14 -56 0
31 32 74 75 0
-15 -24 0
-16 -25 0
21 22 74 75 0
8 9 39 40 0
-15 -37 0
-16 -38 0
49 50 61 62 0
-15 -39 0
-16 -40 0
26 27 69 70 0
-15 -51 0
-16 -52 0
21 22 35 36 0
-15 -59 0
-16 -60 0
35 36 71 72 0
-15 -67 0
-16 -68 0
43 44 51 52 0
-10 39 40 73 0
-17 -35 0
-18 -36 0
49 50 55 56 0
-17 -37 0
-18 -38 0
8 9 61 62 0
-17 -63 0
-18 -64 0
-17 -69 0
-18 -70 0
-19 -24 0
-20 -25 0
15 16 37 38 0
10 11 -39 73 0
-20 -28 0
-19 -39 0
-20 -40 0
15 16 59 60 0
-19 -53 0
-20 -54 0
21 22 29 30 0
-21 -29 0
-22 -30 0
37 38 69 70 0
-21 -35 0
-22 -36 0
2 3 57 58 0
-21 -47 0
-22 -48 0
17 18 69 70 0
-21 -51 0
-22 -52 0
29 30 69 70 0
-21 -53 0
-22 -54 0
47 48 63 64 0
-21 -57 0
-22 -58 0
19 20 24 25 0
-21 -74 0
-22 -75 0
31 32 55 56 0
-10 19 20 28 0
-23 -25 0
10 11 28 -53 0
-23 -44 0
13 14 41 42 0
10 11 -19 28 0
-23 -62 0
17 18 63 64 0
-24 -57 0
-25 -58 0
8 9 31 32 0
-24 -59 0
-25 -60 0
-24 -65 0
-25 -66 0
35 36 59 60 0
-26 -55 0
-27 -56 0
41 42 55 56 0
-26 -69 0
-27 -70 0
15 16 24 25 0
-6 10 11 73 0
-28 -54 0
15 16 67 68 0
-29 -59 0
-30 -60 0
49 50 74 75 0
-29 -69 0
-30 -70 0
35 36 63 64 0
-31 -55 0
-32 -56 0
1 -66 71 72 0
-31 -74 0
-32 -75 0
21 22 47 48 0
-33 -57 0
-34 -58 0
21 22 57 58 0
-33 -61 0
-34 -62 0
-33 -69 0
-34 -70 0
6 7 37 38 0
-35 -59 0
-36 -60 0
-35 -63 0
-36 -64 0
17 18 37 38 0
-35 -67 0
-36 -68 0
2 3 37 38 0
-35 -71 0
-36 -72 0
6 7 39 40 0
-37 -67 0
-38 -68 0
-37 -69 0
-38 -70 0
13 14 55 56 0
47 48 67 68 0
-39 -65 0
-40 -66 0
24 25 59 60 0
1 -44 65 66 0
-40 -73 0
19 20 53 54 0
-41 -53 0
-42 -54 0
4 5 63 64 0
-41 -55 0
-42 -56 0
-41 -71 0
-42 -72 0
2 3 55 56 0
-43 -51 0
-44 -52 0
21 22 53 54 0
-43 -59 0
-44 -60 0
13 14 51 52 0
-43 -71 0
-44 -72 0
35 36 67 68 0
-45 -65 0
-46 -66 0
-47 -61 0
-48 -62 0
8 9 59 60 0
-47 -63 0
-48 -64 0
12 -26 71 72 0
-47 -67 0
-48 -68 0
-6 39 40 73 0
-49 -51 0
-50 -52 0
-49 -55 0
-50 -56 0
21 22 51 52 0
-49 -61 0
-50 -62 0
15 16 51 52 0
-49 -74 0
-50 -75 0
